 vasp.6.2.1 16May21 (build Jan  3 2022 11:18:50) complex
 executed on             LinuxGNU date 2023.01.27  17:10:05

 INCAR:
   ISTART = 0
   ISMEAR = 0
   SIGMA = 0.01
   ENCUT = 550
   PREC = N
   LREAL = A
   EDIFF = 1e-8
   LCHIMAG = .TRUE.
   DQ = 0.003
   ICHIBARE = 1
   LEFG = .TRUE.
   QUAD_EFG = 104 -320 -25.58 -94.2

 POTCAR:    PAW_PBE Na_sv_GW 11May2015
 POTCAR:    PAW_PBE Ta_sv_GW 23Mar2010
 POTCAR:    PAW_PBE O_s_GW 10Jan2007
 POTCAR:    PAW_PBE F_GW 21Dec2007
 POTCAR:    PAW_PBE Na_sv_GW 11May2015
   VRHFIN =Na: 2s2p3s

   TITEL  = PAW_PBE Na_sv_GW 11May2015
   POMASS =   22.990; ZVAL   =    9.000    mass and valenz
   ENMAX  =  372.853; ENMIN  =  279.639 eV

   TITEL  = PAW_PBE Ta_sv_GW 23Mar2010
   POMASS =  180.948; ZVAL   =   13.000    mass and valenz
   ENMAX  =  286.008; ENMIN  =  214.506 eV

   TITEL  = PAW_PBE O_s_GW 10Jan2007
   POMASS =   16.000; ZVAL   =    6.000    mass and valenz
   ENMAX  =  334.664; ENMIN  =  250.998 eV

   TITEL  = PAW_PBE F_GW 21Dec2007
   POMASS =   18.998; ZVAL   =    7.000    mass and valenz
   ENMAX  =  487.698; ENMIN  =  365.773 eV

 Optimization of the real space projectors (new method)

 maximal supplied QI-value         = 17.01
 optimisation between [QCUT,QGAM] = [ 11.91, 23.98] = [ 39.69,161.04] Ry
 Optimized for a Real-space Cutoff    1.41 Angstroem

   l    n(q)    QCUT    max X(q) W(low)/X(q) W(high)/X(q)  e(spline)
   0     10    11.905     3.417    0.52E-05    0.14E-05    0.21E-07
   0     10    11.905     3.114    0.22E-04    0.17E-05    0.22E-06
   1     10    11.905     5.429    0.19E-03    0.12E-03    0.89E-06
   1     10    11.905    22.312    0.14E-03    0.89E-04    0.45E-06
   1     10    11.905     3.323    0.31E-03    0.19E-03    0.13E-05
   2      9    11.905    12.030    0.19E-03    0.32E-04    0.24E-06
   2      9    11.905     8.156    0.21E-03    0.33E-04    0.24E-06
 Optimization of the real space projectors (new method)

[...]

   l    n(q)    QCUT    max X(q) W(low)/X(q) W(high)/X(q)  e(spline)
   0     10    11.939     5.088    0.25E-04    0.28E-06    0.17E-06
   0     10    11.939     1.664    0.52E-04    0.46E-05    0.54E-06
   1     10    11.939     8.077    0.27E-03    0.19E-03    0.13E-05
   1     10    11.939     5.951    0.49E-03    0.34E-03    0.25E-05
   1     10    11.939     3.597    0.20E-03    0.15E-03    0.13E-05
 Optimization of the real space projectors (new method)

 maximal supplied QI-value         = 26.83
 optimisation between [QCUT,QGAM] = [ 11.81, 23.88] = [ 39.04,159.72] Ry
 Optimized for a Real-space Cutoff    1.11 Angstroem

   l    n(q)    QCUT    max X(q) W(low)/X(q) W(high)/X(q)  e(spline)
   0      8    11.807    15.805    0.41E-03    0.77E-03    0.26E-06
   0      8    11.807    12.410    0.41E-03    0.76E-03    0.26E-06
   1      7    11.807     9.077    0.16E-03    0.46E-03    0.19E-06
   1      7    11.807     8.229    0.14E-03    0.43E-03    0.19E-06
  PAW_PBE Na_sv_GW 11May2015            :
  PAW_PBE Ta_sv_GW 23Mar2010            :
  PAW_PBE O_s_GW 10Jan2007              :
  PAW_PBE F_GW 21Dec2007                :

 POSCAR: Sodium difluorodioxoniobate
  positions in direct lattice
 exchange correlation table for  LEXCH =        8
   RHO(1)=    0.500       N(1)  =     2000
   RHO(2)=  100.500       N(2)  =     4000

 ion  position               nearest neighbor table
   1  0.371  0.790  0.108-  24 2.28  19 2.29  17 2.35   9 2.54
   2  0.629  0.210  0.892-  23 2.28  20 2.29  18 2.35  10 2.54
   3  0.629  0.290  0.392-  22 2.28  17 2.29  19 2.35  11 2.54
   4  0.371  0.710  0.608-  21 2.28  18 2.29  20 2.35  12 2.54
   5  0.159  0.260  0.297-  15 1.92  13 1.93  12 1.94   9 1.97  21 2.03  17 2.06
   6  0.841  0.740  0.703-  16 1.92  14 1.93  11 1.94  10 1.97  22 2.03  18 2.06
   7  0.841  0.760  0.203-  13 1.92  15 1.93  10 1.94  11 1.97  23 2.03  19 2.06
   8  0.159  0.240  0.797-  14 1.92  16 1.93   9 1.94  12 1.97  24 2.03  20 2.06
   9  0.187  0.167  0.053-   8 1.94   5 1.97   1 2.54
  10  0.813  0.833  0.947-   7 1.94   6 1.97   2 2.54
  11  0.813  0.667  0.447-   6 1.94   7 1.97   3 2.54
  12  0.187  0.333  0.553-   5 1.94   8 1.97   4 2.54
  13  0.029  0.547  0.214-   7 1.92   5 1.93
  14  0.971  0.453  0.786-   8 1.92   6 1.93
  15  0.971  0.047  0.286-   5 1.92   7 1.93
  16  0.029  0.953  0.714-   6 1.92   8 1.93
  17  0.370  0.469  0.313-   5 2.06   3 2.29   1 2.35
  18  0.630  0.531  0.687-   6 2.06   4 2.29   2 2.35
  19  0.630  0.969  0.187-   7 2.06   1 2.29   3 2.35
  20  0.370  0.031  0.813-   8 2.06   2 2.29   4 2.35
  21  0.324  0.984  0.375-   5 2.03   4 2.28
  22  0.676  0.016  0.625-   6 2.03   3 2.28
  23  0.676  0.484  0.125-   7 2.03   2 2.28
  24  0.324  0.516  0.875-   8 2.03   1 2.28

  LATTYP: Found a simple monoclinic cell.
 ALAT       =     7.5508279229
 B/A-ratio  =     0.7258904253
 C/A-ratio  =     1.0843793334
 COS(beta)  =    -0.2147157932

  Lattice vectors:

 A1 = (  -1.6066295454,   0.0000000000,   7.3779227310)
 A2 = (   0.0000000000,  -5.4810736926,   0.0000000000)
 A3 = (   8.1879455956,   0.0000000000,  -0.0162647065)

Analysis of symmetry for initial positions (statically):
 Subroutine PRICEL returns:
 Original cell was already a primitive cell.

 Routine SETGRP: Setting up the symmetry group for a
 simple monoclinic supercell.

 Subroutine GETGRP returns: Found  4 space group operations
 (whereof  2 operations were pure point group operations)
 out of a pool of  4 trial point group operations.

The static configuration has the point symmetry S_2 .
 The point group associated with its full space group is C_2h.

Analysis of symmetry for dynamics (positions and initial velocities):
 Subroutine PRICEL returns:
 Original cell was already a primitive cell.

 Routine SETGRP: Setting up the symmetry group for a
 simple monoclinic supercell.

 Subroutine GETGRP returns: Found  4 space group operations
 (whereof  2 operations were pure point group operations)
 out of a pool of  4 trial point group operations.

The dynamic configuration has the point symmetry S_2 .
 The point group associated with its full space group is C_2h.

 Subroutine INISYM returns: Found  4 space group operations
 (whereof  2 operations are pure point group operations),
 and found     1 'primitive' translations

                                     Primitive cell

  volume of cell :     330.9686

  direct lattice vectors                    reciprocal lattice vectors
     8.187945596  0.000000000 -0.016264706     0.122183610 -0.000000000  0.026606920
     0.000000000  5.481073693  0.000000000    -0.000000000  0.182446005 -0.000000000
    -1.606629545  0.000000000  7.377922731     0.000269355 -0.000000000  0.135598161

  length of vectors
     8.187961750  5.481073693  7.550827923     0.125047042  0.182446005  0.135598428

  position of ions in fractional coordinates (direct lattice)
     0.370773410  0.789818541  0.107654593
     0.629226560  0.210181459  0.892345407
     0.629226560  0.289818541  0.392345407
     0.370773410  0.710181459  0.607654593
     0.158851679  0.259926249  0.296811162
     0.841148351  0.740073781  0.703188868
     0.841148351  0.759926219  0.203188838
     0.158851679  0.240073751  0.796811132
     0.187276807  0.167058116  0.053053987
     0.812723163  0.832941914  0.946945991
     0.812723163  0.667058086  0.446946021
     0.187276807  0.332941884  0.553054009
     0.028567453  0.546781256  0.214005651
     0.971432536  0.453218744  0.785994334
     0.971432536  0.046781256  0.285994334
     0.028567453  0.953218744  0.714005666
     0.370447042  0.468749810  0.313422057
     0.629552958  0.531250190  0.686577973
     0.629552958  0.968749810  0.186577943
     0.370447042  0.031250190  0.813422027
     0.324025325  0.984338850  0.374876563
     0.675974675  0.015661150  0.625123407
     0.675974675  0.484338850  0.125123437
     0.324025325  0.515661150  0.874876593

  ion indices of the primitive-cell ions
   primitive index   ion index
                 1           1
                 2           2
                 3           3
                 4           4
                 5           5
                 6           6
                 7           7
                 8           8
                 9           9
                10          10
                11          11
                12          12
                13          13
                14          14
                15          15
                16          16
                17          17
                18          18
                19          19
                20          20
                21          21
                22          22
                23          23
                24          24

 KPOINTS: NbOF3_W11-333-vasp_21-relcw

Automatic generation of k-mesh.
 Grid dimensions read from file:
 generate k-points for:    4    6    4

 Generating k-lattice:

  Cartesian coordinates                     Fractional coordinates (reciprocal lattice)
     0.030545903 -0.000000000  0.006651730     0.250000000  0.000000000  0.000000000
    -0.000000000  0.030407668 -0.000000000     0.000000000  0.166666667  0.000000000
     0.000067339 -0.000000000  0.033899540    -0.000000000  0.000000000  0.250000000

  Length of vectors
     0.031261761  0.030407668  0.033899607

  Shift w.r.t. Gamma in fractional coordinates (k-lattice)
     0.500000000  0.500000000  0.500000000

 Subroutine IBZKPT returns following result:

 Found     24 irreducible k-points:

 Following reciprocal coordinates:
            Coordinates               Weight
  0.125000  0.083333  0.125000      4.000000
  0.375000  0.083333  0.125000      4.000000
 -0.375000  0.083333  0.125000      4.000000
 -0.125000  0.083333  0.125000      4.000000
  0.125000  0.250000  0.125000      4.000000
  0.375000  0.250000  0.125000      4.000000
 -0.375000  0.250000  0.125000      4.000000
 -0.125000  0.250000  0.125000      4.000000
  0.125000  0.416667  0.125000      4.000000
  0.375000  0.416667  0.125000      4.000000
 -0.375000  0.416667  0.125000      4.000000
 -0.125000  0.416667  0.125000      4.000000
  0.125000  0.083333  0.375000      4.000000
  0.375000  0.083333  0.375000      4.000000
 -0.375000  0.083333  0.375000      4.000000
 -0.125000  0.083333  0.375000      4.000000
  0.125000  0.250000  0.375000      4.000000
  0.375000  0.250000  0.375000      4.000000
 -0.375000  0.250000  0.375000      4.000000
 -0.125000  0.250000  0.375000      4.000000
  0.125000  0.416667  0.375000      4.000000
  0.375000  0.416667  0.375000      4.000000
 -0.375000  0.416667  0.375000      4.000000
 -0.125000  0.416667  0.375000      4.000000

 Following cartesian coordinates:
            Coordinates               Weight
  0.015307  0.015204  0.020276      4.000000
  0.045853  0.015204  0.026927      4.000000
 -0.045785  0.015204  0.006972      4.000000
 -0.015239  0.015204  0.013624      4.000000
  0.015307  0.045612  0.020276      4.000000
  0.045853  0.045612  0.026927      4.000000
 -0.045785  0.045612  0.006972      4.000000
 -0.015239  0.045612  0.013624      4.000000
  0.015307  0.076019  0.020276      4.000000
  0.045853  0.076019  0.026927      4.000000
 -0.045785  0.076019  0.006972      4.000000
[...]
    22     -0.613520E+01      0.808294E+01     -0.626750E+02
    23     -0.498922E+01     -0.712108E+01     -0.618207E+02
    24     -0.498927E+01     -0.712108E+01     -0.618206E+02

   one center paramagnetic contribution
     1     -0.111811E+01     -0.383897E+01      0.537007E+02
     2     -0.111809E+01     -0.383895E+01      0.537007E+02
     3     -0.104360E+01      0.450383E+01      0.544678E+02
     4     -0.104359E+01      0.450383E+01      0.544678E+02
     5      0.342134E+02     -0.178419E+03      0.601733E+04
     6      0.342129E+02     -0.178411E+03      0.601734E+04
     7      0.387016E+02      0.198182E+03      0.601945E+04
     8      0.386961E+02      0.198173E+03      0.601946E+04
     9      0.668442E+02     -0.598666E+01      0.265111E+03
    10      0.668439E+02     -0.598691E+01      0.265110E+03
    11      0.700127E+02      0.115947E+02      0.241157E+03
    12      0.700130E+02      0.115949E+02      0.241156E+03
    13     -0.493978E+02      0.499067E+02      0.623135E+03
    14     -0.493977E+02      0.499068E+02      0.623136E+03
    15     -0.425349E+02     -0.451049E+02      0.625639E+03
    16     -0.425351E+02     -0.451048E+02      0.625637E+03
    17     -0.145459E+02      0.475182E+01      0.256164E+03
    18     -0.145465E+02      0.475217E+01      0.256165E+03
    19     -0.121077E+02     -0.143534E+01      0.257499E+03
    20     -0.121080E+02     -0.143551E+01      0.257499E+03
    21     -0.299604E+02      0.370406E+02      0.288940E+03
    22     -0.299605E+02      0.370409E+02      0.288940E+03
    23     -0.250020E+02     -0.320521E+02      0.292742E+03
    24     -0.250023E+02     -0.320521E+02      0.292742E+03

   one center diamagnetic contribution
     1     -0.682893E-02      0.230138E-01     -0.153631E+03
     2     -0.682906E-02      0.230140E-01     -0.153631E+03
     3     -0.713955E-02     -0.230826E-01     -0.153632E+03
     4     -0.713956E-02     -0.230829E-01     -0.153632E+03
     5     -0.150259E-01      0.270741E-01      0.397761E+02
     6     -0.150260E-01      0.270742E-01      0.397761E+02
     7     -0.158505E-01     -0.262847E-01      0.397756E+02
     8     -0.158507E-01     -0.262849E-01      0.397756E+02
     9      0.539939E-01     -0.102967E-01     -0.336326E+02
    10      0.539941E-01     -0.102967E-01     -0.336326E+02
    11      0.532782E-01      0.554537E-02     -0.336322E+02
    12      0.532777E-01      0.554551E-02     -0.336322E+02
    13     -0.462146E-01      0.672546E-02     -0.334588E+02
    14     -0.462143E-01      0.672482E-02     -0.334588E+02
    15     -0.433805E-01     -0.826907E-02     -0.334610E+02
    16     -0.433802E-01     -0.826899E-02     -0.334610E+02
    17     -0.536215E-01      0.138277E-01     -0.417545E+02
    18     -0.536220E-01      0.138273E-01     -0.417545E+02
    19     -0.533112E-01     -0.136312E-01     -0.417536E+02
    20     -0.533119E-01     -0.136311E-01     -0.417536E+02
    21     -0.663606E-01      0.131644E+00     -0.417530E+02
    22     -0.663612E-01      0.131645E+00     -0.417530E+02
    23     -0.653077E-01     -0.133494E+00     -0.417503E+02
    24     -0.653079E-01     -0.133494E+00     -0.417503E+02

  Absolute Chemical Shift tensors
  UNSYMMETRIZED TENSORS
 ion    1
       -184.559170         -5.663974         -1.148956
         -5.700232       -192.474191         -4.710832
         -0.719045         -4.403103       -189.203180
 ion    2
       -184.559113         -5.663970         -1.148948
         -5.700229       -192.474189         -4.710834
         -0.719017         -4.403079       -189.203187
 ion    3
       -183.915142          5.472817         -0.524318
          5.181606       -191.898976          5.967030
         -0.622810          5.013902       -188.393518
 ion    4
       -183.915199          5.472822         -0.524323
          5.181617       -191.899011          5.967015
         -0.622798          5.013900       -188.393563
 ion    5
       6355.075776         91.594964          5.742306
        -91.905283       6307.418660         14.186127
         34.906420       -183.406494       6007.660368
 ion    6
       6355.083720         91.606662          5.736691
        -91.893666       6307.412443         14.192479
         34.905902       -183.398330       6007.670411
 ion    7
       6480.839465        -47.272613         63.428745
        109.871885       6373.194892        -18.796751
         39.458448        203.182747       6009.425444
 ion    8
       6480.832229        -47.281561         63.427193
        109.860339       6373.180699        -18.805461
         39.452898        203.174421       6009.431404
 ion    9
        542.858048        -14.009063         70.201718
          0.539214        565.998268         13.338468
         79.546710         -7.130619        184.945247
 ion   10
        542.854192        -14.009336         70.201119
          0.538663        565.993911         13.337860
         79.546349         -7.130911        184.944391
 ion   11
        560.387640          6.112847         90.387262
         -3.748307        566.609589         -0.020436
         83.407645         13.903561        156.295909
 ion   12
        560.385819          6.111972         90.387082
         -3.749336        566.607683         -0.019740
         83.407999         13.903749        156.294884
 ion   13
        390.151169        207.198459        -61.165133
        191.531179        365.037717         53.858942
        -59.284423         58.972000        611.755525
 ion   14
        390.151627        207.198153        -61.165051
        191.530873        365.038562         53.859138
        -59.284317         58.972228        611.757436
 ion   15
        377.541608       -221.797233        -57.423380
       -193.346559        362.737497        -52.598351
        -51.043215        -53.174109        614.774752
 ion   16
        377.539608       -221.795549        -57.423104
       -193.344939        362.735482        -52.598046
        -51.043414        -53.173928        614.772799
 ion   17
         35.056651        -35.437288        -12.110832
        -30.827845         75.068800          2.785481
        -17.498744          6.083744        144.883204
 ion   18
         35.057648        -35.437515        -12.111009
        -30.828034         75.069733          2.785335
        -17.499455          6.084175        144.884963
 ion   19
         38.594248         39.771045        -14.209939
         30.872888         73.615520         -5.164629
        -14.640048         -2.098408        146.507807
 ion   20
         38.594359         39.770704        -14.210031
         30.872815         73.615041         -5.164682
        -14.640311         -2.098621        146.508140
 ion   21
         94.002455         27.848927        -35.343605
         28.562337         71.016753         32.385407
        -36.161940         45.255170        184.512435
 ion   22
         94.002452         27.848405        -35.343779
         28.562128         71.016828         32.385316
        -36.162036         45.255431        184.512443
 ion   23
         82.532413        -36.825924        -24.253520
        -33.696339         67.880644        -34.067598
        -30.056535        -39.306640        189.170560
 ion   24
         82.532192        -36.825694        -24.253558
        -33.695916         67.880718        -34.067933
        -30.056840        -39.306658        189.170874
  SYMMETRIZED TENSORS
 ion    1
       -184.237156         -5.568396         -0.836636
         -5.440921       -192.186592         -5.338928
         -0.670917         -4.708496       -188.798362
 ion    2
       -184.237156         -5.568396         -0.836636
         -5.440921       -192.186592         -5.338928
         -0.670917         -4.708496       -188.798362
 ion    3
       -184.237156          5.568396         -0.836636
          5.440921       -192.186592          5.338928
         -0.670917          4.708496       -188.798362
 ion    4
       -184.237156          5.568396         -0.836636
          5.440921       -192.186592          5.338928
         -0.670917          4.708496       -188.798362
 ion    5
       6417.957798         69.438950         34.583734
       -100.882793       6340.301673         16.495204
         37.180917       -193.290498       6008.546907
 ion    6
       6417.957798         69.438950         34.583734
       -100.882793       6340.301673         16.495204
         37.180917       -193.290498       6008.546907
 ion    7
       6417.957798        -69.438950         34.583734
        100.882793       6340.301673        -16.495204
         37.180917        193.290498       6008.546907
 ion    8
       6417.957798        -69.438950         34.583734
        100.882793       6340.301673        -16.495204
         37.180917        193.290498       6008.546907
 ion    9
        551.621425        -10.060804         80.294295
          2.143880        566.302363          6.679126
         81.477176        -10.517210        170.620108
 ion   10
        551.621425        -10.060804         80.294295
          2.143880        566.302363          6.679126
         81.477176        -10.517210        170.620108
 ion   11
        551.621425         10.060804         80.294295
         -2.143880        566.302363         -6.679126
         81.477176         10.517210        170.620108
 ion   12
        551.621425         10.060804         80.294295
         -2.143880        566.302363         -6.679126
         81.477176         10.517210        170.620108
 ion   13
        383.846003        214.497349        -59.294167
        192.438387        363.887314         53.228619
        -55.163842         56.073066        613.265128
 ion   14
        383.846003        214.497349        -59.294167
        192.438387        363.887314         53.228619
        -55.163842         56.073066        613.265128
 ion   15
        383.846003       -214.497349        -59.294167
       -192.438387        363.887314        -53.228619
        -55.163842        -56.073066        613.265128
 ion   16
        383.846003       -214.497349        -59.294167
       -192.438387        363.887314        -53.228619
        -55.163842        -56.073066        613.265128
 ion   17
         36.825726        -37.604138        -13.160453
        -30.850395         74.342274          3.975032
        -16.069639          4.091237        145.696028
 ion   18
         36.825726        -37.604138        -13.160453
        -30.850395         74.342274          3.975032
        -16.069639          4.091237        145.696028
 ion   19
         36.825726         37.604138        -13.160453
         30.850395         74.342274         -3.975032
        -16.069639         -4.091237        145.696028
 ion   20
         36.825726         37.604138        -13.160453
         30.850395         74.342274         -3.975032
        -16.069639         -4.091237        145.696028
 ion   21
         88.267378         32.337238        -29.798615
         31.129180         69.448736         33.226563
        -33.109338         42.280975        186.841578
 ion   22
         88.267378         32.337238        -29.798615
         31.129180         69.448736         33.226563
        -33.109338         42.280975        186.841578
 ion   23
         88.267378        -32.337238        -29.798615
        -31.129180         69.448736        -33.226563
        -33.109338        -42.280975        186.841578
 ion   24
         88.267378        -32.337238        -29.798615
        -31.129180         69.448736        -33.226563
        -33.109338        -42.280975        186.841578

  G=0 CONTRIBUTION TO CHEMICAL SHIFT (field along BDIR)
   BDIR                X                 Y                 Z
     1         -4.160918          0.000000          0.046402
     2          0.000000         -4.143028          0.000000
     3          0.044396          0.000000         -4.336870

  Approximate magnetic susceptibility, pGv (10^-6 cm^3/mole)
     1        -98.993876          0.000000          1.103962
     2          0.000000        -98.568251          0.000000
     3          1.056234          0.000000       -103.180020

  Core NMR properties

  typ  El   Core shift (ppm)
    1  Na    -377.2811014
    2  Ta   -9212.7246451
    3  O     -271.0766935
    4  F     -306.4193758

  Core contribution to magnetic susceptibility:    -43.86  10^-6 cm^3/mole

  CSA tensor (J. Mason, Solid State Nucl. Magn. Reson. 2, 285 (1993))
             EXCLUDING G=0 CONTRIBUTION             INCLUDING G=0 CONTRIBUTION
  ATOM    ISO_SHIFT        SPAN        SKEW     ISO_SHIFT        SPAN        SKEW
  (absolute, valence only)
     1    -188.4074     16.6684      0.3326     -192.6210     16.6953      0.3135
     2    -188.4074     16.6684      0.3326     -192.6210     16.6953      0.3135
     3    -188.4074     16.6684      0.3326     -192.6210     16.6953      0.3135
     4    -188.4074     16.6684      0.3326     -192.6210     16.6953      0.3135
     5    6255.6021    444.5321      0.6627     6251.3885    444.7129      0.6628
     6    6255.6021    444.5321      0.6627     6251.3885    444.7129      0.6628
     7    6255.6021    444.5321      0.6627     6251.3885    444.7129      0.6628
     8    6255.6021    444.5321      0.6627     6251.3885    444.7129      0.6628
     9     429.5146    417.3904      0.9583      425.3010    417.5907      0.9583
    10     429.5146    417.3904      0.9583      425.3010    417.5907      0.9583
    11     429.5146    417.3904      0.9583      425.3010    417.5907      0.9583
    12     429.5146    417.3904      0.9583      425.3010    417.5907      0.9583
    13     453.6661    470.7436      0.7879      449.4525    470.5440      0.7887
    14     453.6661    470.7436      0.7879      449.4525    470.5440      0.7887
    15     453.6661    470.7436      0.7879      449.4525    470.5440      0.7887
    16     453.6661    470.7436      0.7879      449.4525    470.5440      0.7887
    17      85.6213    133.0435      0.1537       81.4077    132.8512      0.1554
    18      85.6213    133.0435      0.1537       81.4077    132.8512      0.1554
    19      85.6213    133.0435      0.1537       81.4077    132.8512      0.1554
    20      85.6213    133.0435      0.1537       81.4077    132.8512      0.1554
    21     114.8526    171.9359     -0.0516      110.6390    171.7490     -0.0506
    22     114.8526    171.9359     -0.0516      110.6390    171.7490     -0.0506
    23     114.8526    171.9359     -0.0516      110.6390    171.7490     -0.0506
    24     114.8526    171.9359     -0.0516      110.6390    171.7490     -0.0506
  (absolute, valence and core)
     1    -565.6885     16.6684      0.3326     -571.7457     16.6953      0.3135
     2    -565.6885     16.6684      0.3326     -571.7457     16.6953      0.3135
     3    -565.6885     16.6684      0.3326     -571.7457     16.6953      0.3135
     4    -565.6885     16.6684      0.3326     -571.7457     16.6953      0.3135
     5   -2957.1225    444.5321      0.6627    -2963.1798    444.7129      0.6628
     6   -2957.1225    444.5321      0.6627    -2963.1798    444.7129      0.6628
     7   -2957.1225    444.5321      0.6627    -2963.1798    444.7129      0.6628
     8   -2957.1225    444.5321      0.6627    -2963.1798    444.7129      0.6628
     9     158.4379    417.3904      0.9583      152.3807    417.5907      0.9583
    10     158.4379    417.3904      0.9583      152.3807    417.5907      0.9583
    11     158.4379    417.3904      0.9583      152.3807    417.5907      0.9583
    12     158.4379    417.3904      0.9583      152.3807    417.5907      0.9583
    13     182.5895    470.7436      0.7879      176.5322    470.5440      0.7887
    14     182.5895    470.7436      0.7879      176.5322    470.5440      0.7887
    15     182.5895    470.7436      0.7879      176.5322    470.5440      0.7887
    16     182.5895    470.7436      0.7879      176.5322    470.5440      0.7887
    17    -220.7980    133.0435      0.1537     -226.8553    132.8512      0.1554
    18    -220.7980    133.0435      0.1537     -226.8553    132.8512      0.1554
    19    -220.7980    133.0435      0.1537     -226.8553    132.8512      0.1554
    20    -220.7980    133.0435      0.1537     -226.8553    132.8512      0.1554
    21    -191.5668    171.9359     -0.0516     -197.6241    171.7490     -0.0506
    22    -191.5668    171.9359     -0.0516     -197.6241    171.7490     -0.0506
    23    -191.5668    171.9359     -0.0516     -197.6241    171.7490     -0.0506
    24    -191.5668    171.9359     -0.0516     -197.6241    171.7490     -0.0506
  IF SPAN.EQ.0, THEN SKEW IS ILL-DEFINED

 writing wavefunctions