 vasp.6.2.1 16May21 (build Jan  3 2022 11:18:50) complex
 executed on             LinuxGNU date 2023.01.27  10:53:24

 INCAR:
   ISTART = 0
   ISMEAR = 0
   SIGMA = 0.01
   ENCUT = 550
   PREC = N
   LREAL = A
   EDIFF = 1e-8
   LCHIMAG = .TRUE.
   DQ = 0.003
   ICHIBARE = 1
   LEFG = .TRUE.
   QUAD_EFG = 104 -320 -25.58 -94.2

 POTCAR:    PAW_PBE Na_sv_GW 11May2015
 POTCAR:    PAW_PBE Ta_sv_GW 23Mar2010
 POTCAR:    PAW_PBE O_s_GW 10Jan2007
 POTCAR:    PAW_PBE F_GW 21Dec2007
 POTCAR:    PAW_PBE Na_sv_GW 11May2015
   VRHFIN =Na: 2s2p3s

   TITEL  = PAW_PBE Na_sv_GW 11May2015
   POMASS =   22.990; ZVAL   =    9.000    mass and valenz
   ENMAX  =  372.853; ENMIN  =  279.639 eV

   TITEL  = PAW_PBE Ta_sv_GW 23Mar2010
   POMASS =  180.948; ZVAL   =   13.000    mass and valenz
   ENMAX  =  286.008; ENMIN  =  214.506 eV

   TITEL  = PAW_PBE O_s_GW 10Jan2007
   POMASS =   16.000; ZVAL   =    6.000    mass and valenz
   ENMAX  =  334.664; ENMIN  =  250.998 eV

   TITEL  = PAW_PBE F_GW 21Dec2007
   POMASS =   18.998; ZVAL   =    7.000    mass and valenz
   ENMAX  =  487.698; ENMIN  =  365.773 eV

 Optimization of the real space projectors (new method)

 maximal supplied QI-value         = 17.01
 optimisation between [QCUT,QGAM] = [ 11.91, 23.98] = [ 39.69,161.04] Ry
 Optimized for a Real-space Cutoff    1.41 Angstroem

   l    n(q)    QCUT    max X(q) W(low)/X(q) W(high)/X(q)  e(spline)
   0     10    11.905     3.417    0.52E-05    0.14E-05    0.21E-07
   0     10    11.905     3.114    0.22E-04    0.17E-05    0.22E-06
   1     10    11.905     5.429    0.19E-03    0.12E-03    0.89E-06
   1     10    11.905    22.312    0.14E-03    0.89E-04    0.45E-06
   1     10    11.905     3.323    0.31E-03    0.19E-03    0.13E-05
   2      9    11.905    12.030    0.19E-03    0.32E-04    0.24E-06
   2      9    11.905     8.156    0.21E-03    0.33E-04    0.24E-06
 Optimization of the real space projectors (new method)

[...]

   l    n(q)    QCUT    max X(q) W(low)/X(q) W(high)/X(q)  e(spline)
   0     10    11.939     5.088    0.25E-04    0.28E-06    0.17E-06
   0     10    11.939     1.664    0.52E-04    0.46E-05    0.54E-06
   1     10    11.939     8.077    0.27E-03    0.19E-03    0.13E-05
   1     10    11.939     5.951    0.49E-03    0.34E-03    0.25E-05
   1     10    11.939     3.597    0.20E-03    0.15E-03    0.13E-05
 Optimization of the real space projectors (new method)

 maximal supplied QI-value         = 26.83
 optimisation between [QCUT,QGAM] = [ 11.81, 23.88] = [ 39.04,159.72] Ry
 Optimized for a Real-space Cutoff    1.11 Angstroem

   l    n(q)    QCUT    max X(q) W(low)/X(q) W(high)/X(q)  e(spline)
   0      8    11.807    15.805    0.41E-03    0.77E-03    0.26E-06
   0      8    11.807    12.410    0.41E-03    0.76E-03    0.26E-06
   1      7    11.807     9.077    0.16E-03    0.46E-03    0.19E-06
   1      7    11.807     8.229    0.14E-03    0.43E-03    0.19E-06
  PAW_PBE Na_sv_GW 11May2015            :
  PAW_PBE Ta_sv_GW 23Mar2010            :
  PAW_PBE O_s_GW 10Jan2007              :
  PAW_PBE F_GW 21Dec2007                :

 POSCAR: Sodium difluorodioxoniobate
  positions in direct lattice
  velocities in cartesian coordinates
 exchange correlation table for  LEXCH =        8
   RHO(1)=    0.500       N(1)  =     2000
   RHO(2)=  100.500       N(2)  =     4000

 ion  position               nearest neighbor table
   1  0.367  0.790  0.110-  24 2.25  19 2.27  17 2.31   9 2.47
   2  0.633  0.210  0.890-  23 2.25  20 2.27  18 2.31  10 2.47
   3  0.633  0.290  0.390-  22 2.25  17 2.27  19 2.31  11 2.47
   4  0.367  0.710  0.610-  21 2.25  18 2.27  20 2.31  12 2.47
   5  0.159  0.263  0.298-  15 1.92  13 1.93  12 1.94   9 1.97  21 2.02  17 2.05
   6  0.841  0.737  0.702-  16 1.92  14 1.93  11 1.94  10 1.97  22 2.02  18 2.05
   7  0.841  0.763  0.202-  13 1.92  15 1.93  10 1.94  11 1.97  23 2.02  19 2.05
   8  0.159  0.237  0.798-  14 1.92  16 1.93   9 1.94  12 1.97  24 2.02  20 2.05
   9  0.187  0.159  0.055-   8 1.94   5 1.97   1 2.47
  10  0.813  0.841  0.945-   7 1.94   6 1.97   2 2.47
  11  0.813  0.659  0.445-   6 1.94   7 1.97   3 2.47
  12  0.187  0.341  0.555-   5 1.94   8 1.97   4 2.47
  13  0.034  0.556  0.211-   7 1.92   5 1.93
  14  0.966  0.444  0.789-   8 1.92   6 1.93
  15  0.966  0.056  0.289-   5 1.92   7 1.93
  16  0.034  0.944  0.711-   6 1.92   8 1.93
  17  0.374  0.468  0.313-   5 2.05   3 2.27   1 2.31
  18  0.626  0.532  0.687-   6 2.05   4 2.27   2 2.31
  19  0.626  0.968  0.187-   7 2.05   1 2.27   3 2.31
  20  0.374  0.032  0.813-   8 2.05   2 2.27   4 2.31
  21  0.323  0.984  0.379-   5 2.02   4 2.25
  22  0.677  0.016  0.621-   6 2.02   3 2.25
  23  0.677  0.484  0.121-   7 2.02   2 2.25
  24  0.323  0.516  0.879-   8 2.02   1 2.25

  LATTYP: Found a simple monoclinic cell.
 ALAT       =     7.4981498718
 B/A-ratio  =     0.7253962541
 C/A-ratio  =     1.0802304137
 COS(beta)  =    -0.2101015522

  Lattice vectors:

 A1 = (  -1.5753729267,   0.0000000000,   7.3307879278)
 A2 = (   0.0000000000,  -5.4391298294,   0.0000000000)
 A3 = (   8.0997295380,   0.0000000000,   0.0000000000)

Analysis of symmetry for initial positions (statically):
 Subroutine PRICEL returns:
 Original cell was already a primitive cell.

 Routine SETGRP: Setting up the symmetry group for a
 simple monoclinic supercell.

 Subroutine GETGRP returns: Found  4 space group operations
 (whereof  2 operations were pure point group operations)
 out of a pool of  4 trial point group operations.

The static configuration has the point symmetry S_2 .
 The point group associated with its full space group is C_2h.

Analysis of symmetry for dynamics (positions and initial velocities):
 Subroutine PRICEL returns:
 Original cell was already a primitive cell.

 Routine SETGRP: Setting up the symmetry group for a
 simple monoclinic supercell.

 Subroutine GETGRP returns: Found  4 space group operations
 (whereof  2 operations were pure point group operations)
 out of a pool of  4 trial point group operations.

The dynamic configuration has the point symmetry S_2 .
 The point group associated with its full space group is C_2h.

 Subroutine INISYM returns: Found  4 space group operations
 (whereof  2 operations are pure point group operations),
 and found     1 'primitive' translations

                                     Primitive cell

  volume of cell :     322.9614

  direct lattice vectors                    reciprocal lattice vectors
     8.099729538  0.000000000  0.000000000     0.123460913 -0.000000000  0.026531524
     0.000000000  5.439129829  0.000000000     0.000000000  0.183852938 -0.000000000
    -1.575372927  0.000000000  7.330787928     0.000000000  0.000000000  0.136410985

  length of vectors
     8.099729538  5.439129829  7.498149872     0.126279526  0.183852938  0.136410985

  position of ions in fractional coordinates (direct lattice)
     0.367453042  0.789773164  0.110199541
     0.632546928  0.210226836  0.889800459
     0.632546928  0.289773164  0.389800459
     0.367453042  0.710226836  0.610199541
     0.159008787  0.263056180  0.298433468
     0.840991243  0.736943850  0.701566562
     0.840991243  0.763056150  0.201566532
     0.159008787  0.236943820  0.798433438
     0.186711857  0.159007968  0.054836029
     0.813288113  0.840992062  0.945163949
     0.813288113  0.659007938  0.445163979
     0.186711857  0.340992032  0.554836051
     0.033755510  0.555632009  0.210605014
     0.966244479  0.444367991  0.789394971
     0.966244479  0.055632009  0.289394971
     0.033755510  0.944367991  0.710605029
     0.374172196  0.467560245  0.313046634
     0.625827804  0.532439755  0.686953396
     0.625827804  0.967560245  0.186953366
     0.374172196  0.032439755  0.813046604
     0.322967124  0.984227539  0.379449094
     0.677032876  0.015772461  0.620550876
     0.677032876  0.484227539  0.120550906
     0.322967124  0.515772461  0.879449124

  ion indices of the primitive-cell ions
   primitive index   ion index
                 1           1
                 2           2
                 3           3
                 4           4
                 5           5
                 6           6
                 7           7
                 8           8
                 9           9
                10          10
                11          11
                12          12
                13          13
                14          14
                15          15
                16          16
                17          17
                18          18
                19          19
                20          20
                21          21
                22          22
                23          23
                24          24

 KPOINTS: NbOF3_W11-333-vasp_21-relcw

Automatic generation of k-mesh.
 Grid dimensions read from file:
 generate k-points for:    4    6    4

 Generating k-lattice:

  Cartesian coordinates                     Fractional coordinates (reciprocal lattice)
     0.030865228 -0.000000000  0.006632881     0.250000000  0.000000000  0.000000000
     0.000000000  0.030642156 -0.000000000     0.000000000  0.166666667  0.000000000
     0.000000000  0.000000000  0.034102746     0.000000000  0.000000000  0.250000000

  Length of vectors
     0.031569882  0.030642156  0.034102746

  Shift w.r.t. Gamma in fractional coordinates (k-lattice)
     0.500000000  0.500000000  0.500000000

 Subroutine IBZKPT returns following result:

 Found     24 irreducible k-points:

 Following reciprocal coordinates:
            Coordinates               Weight
  0.125000  0.083333  0.125000      4.000000
  0.375000  0.083333  0.125000      4.000000
 -0.375000  0.083333  0.125000      4.000000
 -0.125000  0.083333  0.125000      4.000000
  0.125000  0.250000  0.125000      4.000000
  0.375000  0.250000  0.125000      4.000000
 -0.375000  0.250000  0.125000      4.000000
 -0.125000  0.250000  0.125000      4.000000
  0.125000  0.416667  0.125000      4.000000
  0.375000  0.416667  0.125000      4.000000
 -0.375000  0.416667  0.125000      4.000000
 -0.125000  0.416667  0.125000      4.000000
  0.125000  0.083333  0.375000      4.000000
  0.375000  0.083333  0.375000      4.000000
 -0.375000  0.083333  0.375000      4.000000
 -0.125000  0.083333  0.375000      4.000000
  0.125000  0.250000  0.375000      4.000000
  0.375000  0.250000  0.375000      4.000000
 -0.375000  0.250000  0.375000      4.000000
 -0.125000  0.250000  0.375000      4.000000
  0.125000  0.416667  0.375000      4.000000
  0.375000  0.416667  0.375000      4.000000
 -0.375000  0.416667  0.375000      4.000000
 -0.125000  0.416667  0.375000      4.000000

 Following cartesian coordinates:
            Coordinates               Weight
  0.015433  0.015321  0.020368      4.000000
  0.046298  0.015321  0.027001      4.000000
 -0.046298  0.015321  0.007102      4.000000
 -0.015433  0.015321  0.013735      4.000000
  0.015433  0.045963  0.020368      4.000000
  0.046298  0.045963  0.027001      4.000000
 -0.046298  0.045963  0.007102      4.000000
 -0.015433  0.045963  0.013735      4.000000
  0.015433  0.076605  0.020368      4.000000
  0.046298  0.076605  0.027001      4.000000
[...]
    22     -0.638152E+01      0.883112E+01     -0.621806E+02
    23     -0.527097E+01     -0.786168E+01     -0.611342E+02
    24     -0.527093E+01     -0.786167E+01     -0.611343E+02

   one center paramagnetic contribution
     1     -0.162787E+01     -0.395117E+01      0.577369E+02
     2     -0.162787E+01     -0.395114E+01      0.577368E+02
     3     -0.160120E+01      0.454688E+01      0.586106E+02
     4     -0.160120E+01      0.454690E+01      0.586106E+02
     5      0.249029E+02     -0.186066E+03      0.604041E+04
     6      0.248983E+02     -0.186067E+03      0.604041E+04
     7      0.302738E+02      0.200559E+03      0.604618E+04
     8      0.302797E+02      0.200565E+03      0.604617E+04
     9      0.642515E+02     -0.817917E+01      0.267876E+03
    10      0.642513E+02     -0.817933E+01      0.267876E+03
    11      0.672470E+02      0.143095E+02      0.243264E+03
    12      0.672468E+02      0.143101E+02      0.243263E+03
    13     -0.483889E+02      0.495731E+02      0.617940E+03
    14     -0.483892E+02      0.495731E+02      0.617940E+03
    15     -0.407686E+02     -0.438040E+02      0.620757E+03
    16     -0.407685E+02     -0.438040E+02      0.620756E+03
    17     -0.133799E+02      0.336241E+01      0.254976E+03
    18     -0.133799E+02      0.336259E+01      0.254975E+03
    19     -0.990206E+01     -0.277431E+00      0.257198E+03
    20     -0.990178E+01     -0.277174E+00      0.257198E+03
    21     -0.311771E+02      0.405194E+02      0.291021E+03
    22     -0.311772E+02      0.405195E+02      0.291022E+03
    23     -0.264285E+02     -0.353656E+02      0.295734E+03
    24     -0.264283E+02     -0.353656E+02      0.295734E+03

   one center diamagnetic contribution
     1     -0.381842E-02      0.228733E-01     -0.153652E+03
     2     -0.381854E-02      0.228735E-01     -0.153652E+03
     3     -0.413295E-02     -0.229316E-01     -0.153653E+03
     4     -0.413298E-02     -0.229319E-01     -0.153653E+03
     5     -0.131686E-01      0.289596E-01      0.397692E+02
     6     -0.131687E-01      0.289597E-01      0.397692E+02
     7     -0.142698E-01     -0.280319E-01      0.397686E+02
     8     -0.142700E-01     -0.280321E-01      0.397686E+02
     9      0.514858E-01     -0.102851E-01     -0.336559E+02
    10      0.514859E-01     -0.102851E-01     -0.336559E+02
    11      0.506388E-01      0.537352E-02     -0.336562E+02
    12      0.506383E-01      0.537363E-02     -0.336563E+02
    13     -0.468823E-01      0.273539E-02     -0.334628E+02
    14     -0.468819E-01      0.273474E-02     -0.334627E+02
    15     -0.433671E-01     -0.471136E-02     -0.334655E+02
    16     -0.433669E-01     -0.471127E-02     -0.334655E+02
    17     -0.490738E-01      0.104266E-01     -0.417857E+02
    18     -0.490742E-01      0.104263E-01     -0.417857E+02
    19     -0.486372E-01     -0.101202E-01     -0.417845E+02
    20     -0.486380E-01     -0.101202E-01     -0.417845E+02
    21     -0.669773E-01      0.139149E+00     -0.417690E+02
    22     -0.669778E-01      0.139150E+00     -0.417690E+02
    23     -0.658897E-01     -0.141172E+00     -0.417663E+02
    24     -0.658899E-01     -0.141173E+00     -0.417663E+02

  Absolute Chemical Shift tensors
  UNSYMMETRIZED TENSORS
 ion    1
       -181.332478         -5.481402         -1.774446
         -5.490609       -190.250163         -5.028630
         -1.277077         -4.555968       -184.948124
 ion    2
       -181.332511         -5.481402         -1.774432
         -5.490619       -190.250167         -5.028596
         -1.277082         -4.555936       -184.948191
 ion    3
       -180.571167          5.246774         -1.053932
          4.864374       -189.694492          6.174102
         -1.226973          5.079486       -184.027266
 ion    4
       -180.571149          5.246787         -1.053925
          4.864357       -189.694434          6.174123
         -1.226973          5.079505       -184.027271
 ion    5
       6381.293254         95.489625         -8.840132
       -104.171125       6316.516282         20.186727
         25.380869       -191.222699       6031.105502
 ion    6
       6381.294074         95.487743         -8.840442
       -104.173565       6316.518136         20.188998
         25.376302       -191.223734       6031.111153
 ion    7
       6505.218736        -53.662131         58.381855
        119.518990       6390.210059        -17.794887
         30.822561        205.667953       6036.543829
 ion    8
       6505.229087        -53.659437         58.387425
        119.519843       6390.224521        -17.790008
         30.828509        205.673912       6036.534508
 ion    9
        537.805777        -13.658920         66.801167
         -0.296387        559.353127         20.032548
         76.441028         -9.721382        188.331419
 ion   10
        537.803380        -13.659782         66.800655
         -0.296601        559.350717         20.032200
         76.440800         -9.721573        188.330608
 ion   11
        554.106256          4.674420         86.426501
         -3.198401        559.144372         -6.188625
         80.084227         17.134874        158.896550
 ion   12
        554.103226          4.674979         86.426186
         -3.197624        559.141027         -6.187983
         80.083990         17.135539        158.895811
 ion   13
        393.238580        199.194433        -60.592295
        184.471461        367.167271         53.218880
        -58.083830         58.570988        605.600375
 ion   14
        393.239382        199.194502        -60.592400
        184.471300        367.168035         53.218800
        -58.084207         58.570990        605.601442
 ion   15
        377.798420       -218.031185        -56.851885
       -187.662174        364.133012        -51.486787
        -48.930718        -51.585763        608.996137
 ion   16
        377.797475       -218.030391        -56.851520
       -187.661751        364.132188        -51.486744
        -48.930598        -51.585769        608.994382
 ion   17
         34.773745        -36.295174        -10.510494
        -31.026719         82.981320          1.468916
        -16.083018          4.429982        143.509089
 ion   18
         34.773505        -36.294542        -10.510696
        -31.026333         82.980594          1.469074
        -16.083035          4.430197        143.508835
 ion   19
         38.514778         41.306220        -11.729567
         30.543718         82.140729         -3.924493
        -11.951047         -0.753831        146.213752
 ion   20
         38.514470         41.306070        -11.729358
         30.543391         82.140483         -3.924113
        -11.950704         -0.753515        146.213020
 ion   21
         97.933265         24.213298        -35.290413
         26.087179         72.053804         35.172940
        -37.625586         49.489680        187.071703
 ion   22
         97.933127         24.212975        -35.290383
         26.086797         72.053773         35.173121
        -37.625706         49.489727        187.071984
 ion   23
         84.697936        -34.080688        -22.949040
        -32.183593         69.096105        -37.996658
        -31.765338        -43.368484        192.833285
 ion   24
         84.697765        -34.080321        -22.948848
        -32.182842         69.096048        -37.996575
        -31.765109        -43.368440        192.833123
  SYMMETRIZED TENSORS
 ion    1
       -180.951826         -5.364091         -1.414184
         -5.177490       -189.972314         -5.601363
         -1.252026         -4.817724       -184.487713
 ion    2
       -180.951826         -5.364091         -1.414184
         -5.177490       -189.972314         -5.601363
         -1.252026         -4.817724       -184.487713
 ion    3
       -180.951826          5.364091         -1.414184
          5.177490       -189.972314          5.601363
         -1.252026          4.817724       -184.487713
 ion    4
       -180.951826          5.364091         -1.414184
          5.177490       -189.972314          5.601363
         -1.252026          4.817724       -184.487713
 ion    5
       6443.258788         74.574734         24.772177
       -111.845881       6353.367250         18.990155
         28.102060       -198.447075       6033.823748
 ion    6
       6443.258788         74.574734         24.772177
       -111.845881       6353.367250         18.990155
         28.102060       -198.447075       6033.823748
 ion    7
       6443.258788        -74.574734         24.772177
        111.845881       6353.367250        -18.990155
         28.102060        198.447075       6033.823748
 ion    8
       6443.258788        -74.574734         24.772177
        111.845881       6353.367250        -18.990155
         28.102060        198.447075       6033.823748
 ion    9
        545.954660         -9.167025         76.613627
          1.450759        559.247311         13.110339
         78.262511        -13.428342        173.613597
 ion   10
        545.954660         -9.167025         76.613627
          1.450759        559.247311         13.110339
         78.262511        -13.428342        173.613597
 ion   11
        545.954660          9.167025         76.613627
         -1.450759        559.247311        -13.110339
         78.262511         13.428342        173.613597
 ion   12
        545.954660          9.167025         76.613627
         -1.450759        559.247311        -13.110339
         78.262511         13.428342        173.613597
 ion   13
        385.518464        208.612628        -58.722025
        186.066671        365.650126         52.352803
        -53.507338         55.078378        607.298084
 ion   14
        385.518464        208.612628        -58.722025
        186.066671        365.650126         52.352803
        -53.507338         55.078378        607.298084
 ion   15
        385.518464       -208.612628        -58.722025
       -186.066671        365.650126        -52.352803
        -53.507338        -55.078378        607.298084
 ion   16
        385.518464       -208.612628        -58.722025
       -186.066671        365.650126        -52.352803
        -53.507338        -55.078378        607.298084
 ion   17
         36.644124        -38.800502        -11.120029
        -30.785040         82.560781          2.696649
        -14.016951          2.591881        144.861174
 ion   18
         36.644124        -38.800502        -11.120029
        -30.785040         82.560781          2.696649
        -14.016951          2.591881        144.861174
 ion   19
         36.644124         38.800502        -11.120029
         30.785040         82.560781         -2.696649
        -14.016951         -2.591881        144.861174
 ion   20
         36.644124         38.800502        -11.120029
         30.785040         82.560781         -2.696649
        -14.016951         -2.591881        144.861174
 ion   21
         91.315523         29.146821        -29.119671
         29.135103         70.574933         36.584823
        -34.695434         46.429083        189.952524
 ion   22
         91.315523         29.146821        -29.119671
         29.135103         70.574933         36.584823
        -34.695434         46.429083        189.952524
 ion   23
         91.315523        -29.146821        -29.119671
        -29.135103         70.574933        -36.584823
        -34.695434        -46.429083        189.952524
 ion   24
         91.315523        -29.146821        -29.119671
        -29.135103         70.574933        -36.584823
        -34.695434        -46.429083        189.952524

  G=0 CONTRIBUTION TO CHEMICAL SHIFT (field along BDIR)
   BDIR                X                 Y                 Z
     1         -4.277323          0.000000          0.036810
     2          0.000000         -4.257225          0.000000
     3          0.035622          0.000000         -4.430581

  Approximate magnetic susceptibility, pGv (10^-6 cm^3/mole)
     1        -99.301332          0.000000          0.854576
     2          0.000000        -98.834743          0.000000
     3          0.826992          0.000000       -102.859335

  Core NMR properties

  typ  El   Core shift (ppm)
    1  Na    -377.2811014
    2  Ta   -9212.7246451
    3  O     -271.0766935
    4  F     -306.4193758

  Core contribution to magnetic susceptibility:    -43.86  10^-6 cm^3/mole

  CSA tensor (J. Mason, Solid State Nucl. Magn. Reson. 2, 285 (1993))
             EXCLUDING G=0 CONTRIBUTION             INCLUDING G=0 CONTRIBUTION
  ATOM    ISO_SHIFT        SPAN        SKEW     ISO_SHIFT        SPAN        SKEW
  (absolute, valence only)
     1    -185.1373     16.7580      0.5527     -189.4590     16.7750      0.5355
     2    -185.1373     16.7580      0.5527     -189.4590     16.7750      0.5355
     3    -185.1373     16.7580      0.5527     -189.4590     16.7750      0.5355
     4    -185.1373     16.7580      0.5527     -189.4590     16.7750      0.5355
     5    6276.8166    442.9917      0.6227     6272.4949    443.1450      0.6228
     6    6276.8166    442.9917      0.6227     6272.4949    443.1450      0.6228
     7    6276.8166    442.9917      0.6227     6272.4949    443.1450      0.6228
     8    6276.8166    442.9917      0.6227     6272.4949    443.1450      0.6228
     9     426.2719    406.1492      0.9609      421.9501    406.3229      0.9610
    10     426.2719    406.1492      0.9609      421.9501    406.3229      0.9610
    11     426.2719    406.1492      0.9609      421.9501    406.3229      0.9610
    12     426.2719    406.1492      0.9609      421.9501    406.3229      0.9610
    13     452.8222    456.7622      0.7887      448.5005    456.5880      0.7894
    14     452.8222    456.7622      0.7887      448.5005    456.5880      0.7894
    15     452.8222    456.7622      0.7887      448.5005    456.5880      0.7894
    16     452.8222    456.7622      0.7887      448.5005    456.5880      0.7894
    17      88.0220    129.9463      0.2720       83.7003    129.7800      0.2737
    18      88.0220    129.9463      0.2720       83.7003    129.7800      0.2737
    19      88.0220    129.9463      0.2720       83.7003    129.7800      0.2737
    20      88.0220    129.9463      0.2720       83.7003    129.7800      0.2737
    21     117.2810    174.7720     -0.0934      112.9593    174.6122     -0.0926
    22     117.2810    174.7720     -0.0934      112.9593    174.6122     -0.0926
    23     117.2810    174.7720     -0.0934      112.9593    174.6122     -0.0926
    24     117.2810    174.7720     -0.0934      112.9593    174.6122     -0.0926
  (absolute, valence and core)
     1    -562.4184     16.7580      0.5527     -568.6294     16.7750      0.5355
     2    -562.4184     16.7580      0.5527     -568.6294     16.7750      0.5355
     3    -562.4184     16.7580      0.5527     -568.6294     16.7750      0.5355
     4    -562.4184     16.7580      0.5527     -568.6294     16.7750      0.5355
     5   -2935.9080    442.9917      0.6227    -2942.1191    443.1450      0.6228
     6   -2935.9080    442.9917      0.6227    -2942.1191    443.1450      0.6228
     7   -2935.9080    442.9917      0.6227    -2942.1191    443.1450      0.6228
     8   -2935.9080    442.9917      0.6227    -2942.1191    443.1450      0.6228
     9     155.1952    406.1492      0.9609      148.9841    406.3229      0.9610
    10     155.1952    406.1492      0.9609      148.9841    406.3229      0.9610
    11     155.1952    406.1492      0.9609      148.9841    406.3229      0.9610
    12     155.1952    406.1492      0.9609      148.9841    406.3229      0.9610
    13     181.7455    456.7622      0.7887      175.5345    456.5880      0.7894
    14     181.7455    456.7622      0.7887      175.5345    456.5880      0.7894
    15     181.7455    456.7622      0.7887      175.5345    456.5880      0.7894
    16     181.7455    456.7622      0.7887      175.5345    456.5880      0.7894
    17    -218.3973    129.9463      0.2720     -224.6084    129.7800      0.2737
    18    -218.3973    129.9463      0.2720     -224.6084    129.7800      0.2737
    19    -218.3973    129.9463      0.2720     -224.6084    129.7800      0.2737
    20    -218.3973    129.9463      0.2720     -224.6084    129.7800      0.2737
    21    -189.1384    174.7720     -0.0934     -195.3494    174.6122     -0.0926
    22    -189.1384    174.7720     -0.0934     -195.3494    174.6122     -0.0926
    23    -189.1384    174.7720     -0.0934     -195.3494    174.6122     -0.0926
    24    -189.1384    174.7720     -0.0934     -195.3494    174.6122     -0.0926
  IF SPAN.EQ.0, THEN SKEW IS ILL-DEFINED

 writing wavefunctions