 vasp.6.2.1 16May21 (build Jan  3 2022 11:18:50) complex
 executed on             LinuxGNU date 2023.01.27  17:09:39

 INCAR:
   ISTART = 0
   ISMEAR = 0
   SIGMA = 0.01
   ENCUT = 550
   PREC = N
   LREAL = A
   EDIFF = 1e-8
   LCHIMAG = .TRUE.
   DQ = 0.003
   ICHIBARE = 1
   LEFG = .TRUE.
   QUAD_EFG = 104 -320 -25.58 -94.2

 POTCAR:    PAW_PBE Na_sv_GW 11May2015
 POTCAR:    PAW_PBE Nb_sv_GW 05Dec2013
 POTCAR:    PAW_PBE O_s_GW 10Jan2007
 POTCAR:    PAW_PBE F_GW 21Dec2007
 POTCAR:    PAW_PBE Na_sv_GW 11May2015
   VRHFIN =Na: 2s2p3s

   TITEL  = PAW_PBE Na_sv_GW 11May2015
   POMASS =   22.990; ZVAL   =    9.000    mass and valenz
   ENMAX  =  372.853; ENMIN  =  279.639 eV

   TITEL  = PAW_PBE Nb_sv_GW 05Dec2013
   POMASS =   92.910; ZVAL   =   13.000    mass and valenz
   ENMAX  =  353.872; ENMIN  =  265.404 eV

   TITEL  = PAW_PBE O_s_GW 10Jan2007
   POMASS =   16.000; ZVAL   =    6.000    mass and valenz
   ENMAX  =  334.664; ENMIN  =  250.998 eV

   TITEL  = PAW_PBE F_GW 21Dec2007
   POMASS =   18.998; ZVAL   =    7.000    mass and valenz
   ENMAX  =  487.698; ENMIN  =  365.773 eV

 Optimization of the real space projectors (new method)

 maximal supplied QI-value         = 17.01
 optimisation between [QCUT,QGAM] = [ 11.91, 23.98] = [ 39.69,161.04] Ry
 Optimized for a Real-space Cutoff    1.41 Angstroem

   l    n(q)    QCUT    max X(q) W(low)/X(q) W(high)/X(q)  e(spline)
   0     10    11.905     3.417    0.52E-05    0.14E-05    0.21E-07
   0     10    11.905     3.114    0.22E-04    0.17E-05    0.22E-06
   1     10    11.905     5.429    0.19E-03    0.12E-03    0.89E-06
   1     10    11.905    22.312    0.14E-03    0.89E-04    0.45E-06
   1     10    11.905     3.323    0.31E-03    0.19E-03    0.13E-05
   2      9    11.905    12.030    0.19E-03    0.32E-04    0.24E-06
   2      9    11.905     8.156    0.21E-03    0.33E-04    0.24E-06
 Optimization of the real space projectors (new method)

[...]

   l    n(q)    QCUT    max X(q) W(low)/X(q) W(high)/X(q)  e(spline)
   0     10    11.939     5.088    0.25E-04    0.28E-06    0.17E-06
   0     10    11.939     1.664    0.52E-04    0.46E-05    0.54E-06
   1     10    11.939     8.077    0.27E-03    0.19E-03    0.13E-05
   1     10    11.939     5.951    0.49E-03    0.34E-03    0.25E-05
   1     10    11.939     3.597    0.20E-03    0.15E-03    0.13E-05
 Optimization of the real space projectors (new method)

 maximal supplied QI-value         = 26.83
 optimisation between [QCUT,QGAM] = [ 11.81, 23.88] = [ 39.04,159.72] Ry
 Optimized for a Real-space Cutoff    1.11 Angstroem

   l    n(q)    QCUT    max X(q) W(low)/X(q) W(high)/X(q)  e(spline)
   0      8    11.807    15.805    0.41E-03    0.77E-03    0.26E-06
   0      8    11.807    12.410    0.41E-03    0.76E-03    0.26E-06
   1      7    11.807     9.077    0.16E-03    0.46E-03    0.19E-06
   1      7    11.807     8.229    0.14E-03    0.43E-03    0.19E-06
  PAW_PBE Na_sv_GW 11May2015            :
  PAW_PBE Nb_sv_GW 05Dec2013            :
  PAW_PBE O_s_GW 10Jan2007              :
  PAW_PBE F_GW 21Dec2007                :

 POSCAR: Sodium difluorodioxoniobate
  positions in direct lattice
 exchange correlation table for  LEXCH =        8
   RHO(1)=    0.500       N(1)  =     2000
   RHO(2)=  100.500       N(2)  =     4000

 ion  position               nearest neighbor table
   1  0.362  0.781  0.119-  19 2.27  24 2.28  17 2.31   9 2.51
   2  0.638  0.219  0.881-  20 2.27  23 2.28  18 2.31  10 2.51
   3  0.638  0.281  0.381-  17 2.27  22 2.28  19 2.31  11 2.51
   4  0.362  0.719  0.619-  18 2.27  21 2.28  20 2.31  12 2.51
   5  0.156  0.266  0.318-  12 1.83  15 1.90  13 1.94  21 2.02  17 2.05   9 2.14
   6  0.844  0.734  0.682-  11 1.83  16 1.90  14 1.94  22 2.02  18 2.05  10 2.14
   7  0.844  0.766  0.182-  10 1.83  13 1.90  15 1.94  23 2.02  19 2.05  11 2.14
   8  0.156  0.234  0.818-   9 1.83  14 1.90  16 1.94  24 2.02  20 2.05  12 2.14
   9  0.180  0.157  0.055-   8 1.83   5 2.14   1 2.51
  10  0.820  0.843  0.945-   7 1.83   6 2.14   2 2.51
  11  0.820  0.657  0.445-   6 1.83   7 2.14   3 2.51
  12  0.180  0.343  0.555-   5 1.83   8 2.14   4 2.51
  13  0.037  0.558  0.212-   7 1.90   5 1.94
  14  0.963  0.442  0.788-   8 1.90   6 1.94
  15  0.963  0.058  0.288-   5 1.90   7 1.94
  16  0.037  0.942  0.712-   6 1.90   8 1.94
  17  0.376  0.453  0.313-   5 2.05   3 2.27   1 2.31
  18  0.624  0.547  0.687-   6 2.05   4 2.27   2 2.31
  19  0.624  0.953  0.187-   7 2.05   1 2.27   3 2.31
  20  0.376  0.047  0.813-   8 2.05   2 2.27   4 2.31
  21  0.316  0.977  0.379-   5 2.02   4 2.28
  22  0.684  0.023  0.621-   6 2.02   3 2.28
  23  0.684  0.477  0.121-   7 2.02   2 2.28
  24  0.316  0.523  0.879-   8 2.02   1 2.28

  LATTYP: Found a simple monoclinic cell.
 ALAT       =     7.6468637410
 B/A-ratio  =     0.7114609108
 C/A-ratio  =     1.0559885630
 COS(beta)  =    -0.2109481049

  Lattice vectors:

 A1 = (  -1.6007013708,   0.0000000000,   7.4774514505)
 A2 = (   0.0000000000,  -5.4404446419,   0.0000000000)
 A3 = (   8.0749895643,   0.0000000000,  -0.0133825494)

Analysis of symmetry for initial positions (statically):
 Subroutine PRICEL returns:
 Original cell was already a primitive cell.

 Routine SETGRP: Setting up the symmetry group for a
 simple monoclinic supercell.

 Subroutine GETGRP returns: Found  4 space group operations
 (whereof  2 operations were pure point group operations)
 out of a pool of  4 trial point group operations.

The static configuration has the point symmetry S_2 .
 The point group associated with its full space group is C_2h.

Analysis of symmetry for dynamics (positions and initial velocities):
 Subroutine PRICEL returns:
 Original cell was already a primitive cell.

 Routine SETGRP: Setting up the symmetry group for a
 simple monoclinic supercell.

 Subroutine GETGRP returns: Found  4 space group operations
 (whereof  2 operations were pure point group operations)
 out of a pool of  4 trial point group operations.

The dynamic configuration has the point symmetry S_2 .
 The point group associated with its full space group is C_2h.

 Subroutine INISYM returns: Found  4 space group operations
 (whereof  2 operations are pure point group operations),
 and found     1 'primitive' translations

                                     Primitive cell

  volume of cell :     328.3794

  direct lattice vectors                    reciprocal lattice vectors
     8.074989564  0.000000000 -0.013382549     0.123883120 -0.000000000  0.026519715
     0.000000000  5.440444642  0.000000000    -0.000000000  0.183808506 -0.000000000
    -1.600701371  0.000000000  7.477451451     0.000221716 -0.000000000  0.133782868

  length of vectors
     8.075000654  5.440444642  7.646863741     0.126689868  0.183808506  0.133783052

  position of ions in fractional coordinates (direct lattice)
     0.362154135  0.781354522  0.118504183
     0.637845835  0.218645478  0.881495824
     0.637845835  0.281354522  0.381495824
     0.362154135  0.718645478  0.618504176
     0.156312759  0.266187784  0.317895757
     0.843687226  0.733812216  0.682104273
     0.843687226  0.766187784  0.182104243
     0.156312759  0.233812216  0.817895727
     0.179538585  0.156608986  0.055172500
     0.820461415  0.843391029  0.944827478
     0.820461415  0.656608971  0.444827508
     0.179538585  0.343391029  0.555172522
     0.037390272  0.558165073  0.212262687
     0.962609709  0.441834927  0.787737298
     0.962609709  0.058165073  0.287737298
     0.037390272  0.941834927  0.712262702
     0.375603022  0.452933877  0.312885846
     0.624397007  0.547066123  0.687114184
     0.624397007  0.952933877  0.187114154
     0.375603022  0.047066123  0.812885816
     0.315725463  0.977285238  0.378699182
     0.684274537  0.022714762  0.621300818
     0.684274537  0.477285238  0.121300818
     0.315725463  0.522714762  0.878699182

  ion indices of the primitive-cell ions
   primitive index   ion index
                 1           1
                 2           2
                 3           3
                 4           4
                 5           5
                 6           6
                 7           7
                 8           8
                 9           9
                10          10
                11          11
                12          12
                13          13
                14          14
                15          15
                16          16
                17          17
                18          18
                19          19
                20          20
                21          21
                22          22
                23          23
                24          24

 KPOINTS: NbOF3_W11-333-vasp_21-relcw

Automatic generation of k-mesh.
 Grid dimensions read from file:
 generate k-points for:    4    6    4

 Generating k-lattice:

  Cartesian coordinates                     Fractional coordinates (reciprocal lattice)
     0.030970780 -0.000000000  0.006629929     0.250000000  0.000000000 -0.000000000
    -0.000000000  0.030634751 -0.000000000     0.000000000  0.166666667  0.000000000
     0.000055429 -0.000000000  0.033445717     0.000000000  0.000000000  0.250000000

  Length of vectors
     0.031672467  0.030634751  0.033445763

  Shift w.r.t. Gamma in fractional coordinates (k-lattice)
     0.500000000  0.500000000  0.500000000

 Subroutine IBZKPT returns following result:

 Found     24 irreducible k-points:

 Following reciprocal coordinates:
            Coordinates               Weight
  0.125000  0.083333  0.125000      4.000000
  0.375000  0.083333  0.125000      4.000000
 -0.375000  0.083333  0.125000      4.000000
 -0.125000  0.083333  0.125000      4.000000
  0.125000  0.250000  0.125000      4.000000
  0.375000  0.250000  0.125000      4.000000
 -0.375000  0.250000  0.125000      4.000000
 -0.125000  0.250000  0.125000      4.000000
  0.125000  0.416667  0.125000      4.000000
  0.375000  0.416667  0.125000      4.000000
 -0.375000  0.416667  0.125000      4.000000
 -0.125000  0.416667  0.125000      4.000000
  0.125000  0.083333  0.375000      4.000000
  0.375000  0.083333  0.375000      4.000000
 -0.375000  0.083333  0.375000      4.000000
 -0.125000  0.083333  0.375000      4.000000
  0.125000  0.250000  0.375000      4.000000
  0.375000  0.250000  0.375000      4.000000
 -0.375000  0.250000  0.375000      4.000000
 -0.125000  0.250000  0.375000      4.000000
  0.125000  0.416667  0.375000      4.000000
  0.375000  0.416667  0.375000      4.000000
 -0.375000  0.416667  0.375000      4.000000
 -0.125000  0.416667  0.375000      4.000000

 Following cartesian coordinates:
            Coordinates               Weight
  0.015513  0.015317  0.020038      4.000000
  0.046484  0.015317  0.026668      4.000000
 -0.046428  0.015317  0.006778      4.000000
 -0.015458  0.015317  0.013408      4.000000
  0.015513  0.045952  0.020038      4.000000
  0.046484  0.045952  0.026668      4.000000
 -0.046428  0.045952  0.006778      4.000000
 -0.015458  0.045952  0.013408      4.000000
  0.015513  0.076587  0.020038      4.000000
  0.046484  0.076587  0.026668      4.000000
 -0.046428  0.076587  0.006778      4.000000
[...]
    22     -0.474735E+01      0.101436E+02     -0.536403E+02
    23     -0.367545E+01     -0.930852E+01     -0.527581E+02
    24     -0.367544E+01     -0.930851E+01     -0.527578E+02

   one center paramagnetic contribution
     1     -0.139020E+01     -0.446062E+01      0.542848E+02
     2     -0.139019E+01     -0.446064E+01      0.542849E+02
     3     -0.147226E+01      0.474177E+01      0.547817E+02
     4     -0.147225E+01      0.474179E+01      0.547817E+02
     5     -0.413431E+02     -0.985187E+02      0.291249E+04
     6     -0.413422E+02     -0.985195E+02      0.291250E+04
     7     -0.456048E+02      0.100119E+03      0.291338E+04
     8     -0.456038E+02      0.100120E+03      0.291338E+04
     9      0.529914E+02      0.835891E+02      0.288492E+03
    10      0.529913E+02      0.835885E+02      0.288491E+03
    11      0.548557E+02     -0.833726E+02      0.257950E+03
    12      0.548557E+02     -0.833719E+02      0.257948E+03
    13     -0.683970E+02      0.794442E+02      0.756690E+03
    14     -0.683971E+02      0.794441E+02      0.756688E+03
    15     -0.615467E+02     -0.743453E+02      0.761102E+03
    16     -0.615467E+02     -0.743451E+02      0.761101E+03
    17     -0.130785E+02      0.442734E+01      0.299158E+03
    18     -0.130785E+02      0.442755E+01      0.299159E+03
    19     -0.957642E+01     -0.390744E+01      0.302516E+03
    20     -0.957642E+01     -0.390838E+01      0.302517E+03
    21     -0.259556E+02      0.472980E+02      0.335791E+03
    22     -0.259556E+02      0.472977E+02      0.335791E+03
    23     -0.215815E+02     -0.426942E+02      0.339791E+03
    24     -0.215815E+02     -0.426942E+02      0.339792E+03

   one center diamagnetic contribution
     1     -0.521950E-02      0.252223E-01     -0.153644E+03
     2     -0.521958E-02      0.252223E-01     -0.153644E+03
     3     -0.537145E-02     -0.250617E-01     -0.153644E+03
     4     -0.537160E-02     -0.250617E-01     -0.153644E+03
     5      0.114093E-01      0.326385E-01      0.148679E+02
     6      0.114089E-01      0.326388E-01      0.148679E+02
     7      0.101080E-01     -0.320456E-01      0.148675E+02
     8      0.101075E-01     -0.320461E-01      0.148675E+02
     9      0.697400E-01     -0.818310E-01     -0.331431E+02
    10      0.697401E-01     -0.818311E-01     -0.331432E+02
    11      0.676098E-01      0.794458E-01     -0.331406E+02
    12      0.676099E-01      0.794456E-01     -0.331406E+02
    13     -0.349344E-01     -0.187742E-01     -0.331757E+02
    14     -0.349348E-01     -0.187739E-01     -0.331757E+02
    15     -0.303210E-01      0.164377E-01     -0.331788E+02
    16     -0.303211E-01      0.164378E-01     -0.331788E+02
    17     -0.321211E-01      0.180967E-01     -0.417375E+02
    18     -0.321215E-01      0.180966E-01     -0.417375E+02
    19     -0.312655E-01     -0.176304E-01     -0.417361E+02
    20     -0.312662E-01     -0.176307E-01     -0.417362E+02
    21     -0.496577E-01      0.129412E+00     -0.417350E+02
    22     -0.496579E-01      0.129412E+00     -0.417350E+02
    23     -0.484395E-01     -0.130419E+00     -0.417301E+02
    24     -0.484399E-01     -0.130420E+00     -0.417301E+02

  Absolute Chemical Shift tensors
  UNSYMMETRIZED TENSORS
 ion    1
       -183.521591         -4.457606         -1.663782
         -4.127270       -192.033041         -7.060509
         -1.007603         -5.080213       -189.842368
 ion    2
       -183.521521         -4.457631         -1.663788
         -4.127298       -192.032978         -7.060533
         -1.007594         -5.080236       -189.842329
 ion    3
       -183.494897          4.561647         -1.007269
          3.610185       -192.001342          7.128550
         -1.070611          5.249982       -189.290262
 ion    4
       -183.494850          4.561604         -1.007265
          3.610148       -192.001333          7.128529
         -1.070595          5.249997       -189.290244
 ion    5
       3318.747246          2.717906        -49.132153
        -71.072473       3296.781283        -10.111363
        -44.541205       -107.413538       2967.185577
 ion    6
       3318.754373          2.717017        -49.130486
        -71.068535       3296.787405        -10.112170
        -44.540287       -107.414459       2967.189654
 ion    7
       3377.689542         11.886765        -18.480828
         80.250804       3333.115733         24.717804
        -48.913053        109.011354       2967.504974
 ion    8
       3377.692278         11.884737        -18.479409
         80.248900       3333.119027         24.720886
        -48.911904        109.012286       2967.500238
 ion    9
        748.615421        -60.463586         45.010342
        -47.821183        774.575742        141.415360
         62.378760         99.784577        216.034693
 ion   10
        748.610231        -60.463190         45.009931
        -47.820248        774.570264        141.414290
         62.378621         99.783746        216.033464
 ion   11
        781.552222         33.389786         58.067811
         45.293145        774.121472       -139.591609
         64.658929        -99.299579        179.513320
 ion   12
        781.547669         33.389513         58.067351
         45.293282        774.116079       -139.590475
         64.658948        -99.298820        179.511442
 ion   13
        466.516842        215.707384        -99.759362
        182.238853        456.771042        100.609218
        -81.340305         93.537849        771.508667
 ion   14
        466.515605        215.705280        -99.759413
        182.237202        456.769361        100.608634
        -81.340424         93.537736        771.506096
 ion   15
        449.580820       -233.385070        -99.261119
       -182.531800        458.757477        -96.684948
        -73.213138        -87.195719        776.831298
 ion   16
        449.580381       -233.383724        -99.261336
       -182.530448        458.756765        -96.684176
        -73.213134        -87.195438        776.830832
 ion   17
         46.423407        -24.127006          2.341551
        -19.472290         93.937395          8.990144
        -15.880496          5.693820        196.458984
 ion   18
         46.423955        -24.126507          2.341417
        -19.471854         93.937359          8.990407
        -15.880448          5.694075        196.459310
 ion   19
         41.623953         30.922433         -1.598394
         23.562681         92.766000        -12.970515
        -11.739975         -5.235783        200.551031
 ion   20
         41.624003         30.922243         -1.598493
         23.562826         92.766155        -12.971150
        -11.739963         -5.236938        200.552454
 ion   21
        111.752630         30.759150        -18.885292
         31.051554         86.575577         33.243562
        -30.752623         57.571050        240.415850
 ion   22
        111.751907         30.758458        -18.885574
         31.050395         86.575358         33.243459
        -30.752634         57.570709        240.415566
 ion   23
        103.799376        -41.107815         -7.302041
        -36.771788         84.558793        -40.718025
        -25.305420        -52.133181        245.302488
 ion   24
        103.799387        -41.107308         -7.302004
        -36.771107         84.558831        -40.718240
        -25.305401        -52.133168        245.303593
  SYMMETRIZED TENSORS
 ion    1
       -183.508215         -4.509622         -1.335526
         -3.868725       -192.017173         -7.094530
         -1.039101         -5.165107       -189.566301
 ion    2
       -183.508215         -4.509622         -1.335526
         -3.868725       -192.017173         -7.094530
         -1.039101         -5.165107       -189.566301
 ion    3
       -183.508215          4.509622         -1.335526
          3.868725       -192.017173          7.094530
         -1.039101          5.165107       -189.566301
 ion    4
       -183.508215          4.509622         -1.335526
          3.868725       -192.017173          7.094530
         -1.039101          5.165107       -189.566301
 ion    5
       3348.220860         -4.584145        -33.805719
        -75.660178       3314.950862        -17.415556
        -46.726612       -108.212909       2967.345111
 ion    6
       3348.220860         -4.584145        -33.805719
        -75.660178       3314.950862        -17.415556
        -46.726612       -108.212909       2967.345111
 ion    7
       3348.220860          4.584145        -33.805719
         75.660178       3314.950862         17.415556
        -46.726612        108.212909       2967.345111
 ion    8
       3348.220860          4.584145        -33.805719
         75.660178       3314.950862         17.415556
        -46.726612        108.212909       2967.345111
 ion    9
        765.081386        -46.926519         51.538859
        -46.556965        774.345889        140.502934
         63.518815         99.541680        197.773230
 ion   10
        765.081386        -46.926519         51.538859
        -46.556965        774.345889        140.502934
         63.518815         99.541680        197.773230
 ion   11
        765.081386         46.926519         51.538859
         46.556965        774.345889       -140.502934
         63.518815        -99.541680        197.773230
 ion   12
        765.081386         46.926519         51.538859
         46.556965        774.345889       -140.502934
         63.518815        -99.541680        197.773230
 ion   13
        458.048412        224.545364        -99.510308
        182.384576        457.763661         98.646744
        -77.276750         90.366686        774.169223
 ion   14
        458.048412        224.545364        -99.510308
        182.384576        457.763661         98.646744
        -77.276750         90.366686        774.169223
 ion   15
        458.048412       -224.545364        -99.510308
       -182.384576        457.763661        -98.646744
        -77.276750        -90.366686        774.169223
 ion   16
        458.048412       -224.545364        -99.510308
       -182.384576        457.763661        -98.646744
        -77.276750        -90.366686        774.169223
 ion   17
         44.023829        -27.524547          0.371520
        -21.517413         93.351727         10.980554
        -13.810220          5.465154        198.505445
 ion   18
         44.023829        -27.524547          0.371520
        -21.517413         93.351727         10.980554
        -13.810220          5.465154        198.505445
 ion   19
         44.023829         27.524547          0.371520
         21.517413         93.351727        -10.980554
        -13.810220         -5.465154        198.505445
 ion   20
         44.023829         27.524547          0.371520
         21.517413         93.351727        -10.980554
        -13.810220         -5.465154        198.505445
 ion   21
        107.775825         35.933183        -13.093728
         33.911211         85.567140         36.980821
        -28.029020         54.852027        242.859374
 ion   22
        107.775825         35.933183        -13.093728
         33.911211         85.567140         36.980821
        -28.029020         54.852027        242.859374
 ion   23
        107.775825        -35.933183        -13.093728
        -33.911211         85.567140        -36.980821
        -28.029020        -54.852027        242.859374
 ion   24
        107.775825        -35.933183        -13.093728
        -33.911211         85.567140        -36.980821
        -28.029020        -54.852027        242.859374

  G=0 CONTRIBUTION TO CHEMICAL SHIFT (field along BDIR)
   BDIR                X                 Y                 Z
     1         -3.133249          0.000000         -0.033124
     2          0.000000         -3.082335          0.000000
     3         -0.052592          0.000000         -3.450883

  Approximate magnetic susceptibility, pGv (10^-6 cm^3/mole)
     1        -73.961061          0.000000         -0.781911
     2          0.000000        -72.759224          0.000000
     3         -1.241454          0.000000        -81.458892

  Core NMR properties

  typ  El   Core shift (ppm)
    1  Na    -377.2811014
    2  Nb   -3786.6089620
    3  O     -271.0766935
    4  F     -306.4193758

  Core contribution to magnetic susceptibility:    -14.96  10^-6 cm^3/mole

  CSA tensor (J. Mason, Solid State Nucl. Magn. Reson. 2, 285 (1993))
             EXCLUDING G=0 CONTRIBUTION             INCLUDING G=0 CONTRIBUTION
  ATOM    ISO_SHIFT        SPAN        SKEW     ISO_SHIFT        SPAN        SKEW
  (absolute, valence only)
     1    -188.3639     16.6559      0.5247     -191.5861     16.7286      0.5113
     2    -188.3639     16.6559      0.5247     -191.5861     16.7286      0.5113
     3    -188.3639     16.6559      0.5247     -191.5861     16.7286      0.5113
     4    -188.3639     16.6559      0.5247     -191.5861     16.7286      0.5113
     5    3210.1723    424.1834      0.6682     3206.9501    424.5099      0.6685
     6    3210.1723    424.1834      0.6682     3206.9501    424.5099      0.6685
     7    3210.1723    424.1834      0.6682     3206.9501    424.5099      0.6685
     8    3210.1723    424.1834      0.6682     3206.9501    424.5099      0.6685
     9     579.0668    655.4790      0.7757      575.8447    655.8046      0.7757
    10     579.0668    655.4790      0.7757      575.8447    655.8046      0.7757
    11     579.0668    655.4790      0.7757      575.8447    655.8046      0.7757
    12     579.0668    655.4790      0.7757      575.8447    655.8046      0.7757
    13     563.3271    580.6608      0.5059      560.1049    580.3794      0.5068
    14     563.3271    580.6608      0.5059      560.1049    580.3794      0.5068
    15     563.3271    580.6608      0.5059      560.1049    580.3794      0.5068
    16     563.3271    580.6608      0.5059      560.1049    580.3794      0.5068
    17     111.9603    165.7861     -0.1731      108.7382    165.4717     -0.1712
    18     111.9603    165.7861     -0.1731      108.7382    165.4717     -0.1712
    19     111.9603    165.7861     -0.1731      108.7382    165.4717     -0.1712
    20     111.9603    165.7861     -0.1731      108.7382    165.4717     -0.1712
    21     145.4008    208.5540     -0.1849      142.1786    208.2648     -0.1836
    22     145.4008    208.5540     -0.1849      142.1786    208.2648     -0.1836
    23     145.4008    208.5540     -0.1849      142.1786    208.2648     -0.1836
    24     145.4008    208.5540     -0.1849      142.1786    208.2648     -0.1836
  (absolute, valence and core)
     1    -565.6450     16.6559      0.5247     -569.5011     16.7286      0.5113
     2    -565.6450     16.6559      0.5247     -569.5011     16.7286      0.5113
     3    -565.6450     16.6559      0.5247     -569.5011     16.7286      0.5113
     4    -565.6450     16.6559      0.5247     -569.5011     16.7286      0.5113
     5    -576.4367    424.1834      0.6682     -580.2928    424.5099      0.6685
     6    -576.4367    424.1834      0.6682     -580.2928    424.5099      0.6685
     7    -576.4367    424.1834      0.6682     -580.2928    424.5099      0.6685
     8    -576.4367    424.1834      0.6682     -580.2928    424.5099      0.6685
     9     307.9901    655.4790      0.7757      304.1341    655.8046      0.7757
    10     307.9901    655.4790      0.7757      304.1341    655.8046      0.7757
    11     307.9901    655.4790      0.7757      304.1341    655.8046      0.7757
    12     307.9901    655.4790      0.7757      304.1341    655.8046      0.7757
    13     292.2504    580.6608      0.5059      288.3943    580.3794      0.5068
    14     292.2504    580.6608      0.5059      288.3943    580.3794      0.5068
    15     292.2504    580.6608      0.5059      288.3943    580.3794      0.5068
    16     292.2504    580.6608      0.5059      288.3943    580.3794      0.5068
    17    -194.4590    165.7861     -0.1731     -198.3151    165.4717     -0.1712
    18    -194.4590    165.7861     -0.1731     -198.3151    165.4717     -0.1712
    19    -194.4590    165.7861     -0.1731     -198.3151    165.4717     -0.1712
    20    -194.4590    165.7861     -0.1731     -198.3151    165.4717     -0.1712
    21    -161.0186    208.5540     -0.1849     -164.8747    208.2648     -0.1836
    22    -161.0186    208.5540     -0.1849     -164.8747    208.2648     -0.1836
    23    -161.0186    208.5540     -0.1849     -164.8747    208.2648     -0.1836
    24    -161.0186    208.5540     -0.1849     -164.8747    208.2648     -0.1836
  IF SPAN.EQ.0, THEN SKEW IS ILL-DEFINED

 writing wavefunctions